2-dimensional/CL_05_25_10.vbp
2
1000 1000 
25
56 75 30
49 69 72
67 35 4
28 88 88
97 71 54
92 76 64
79 68 90
74 40 26
46 83 94
59 90 28
56 51 72
79 58 49
44 78 54
42 28 19
41 75 28
33 34 61
33 48 84
84 58 23
26 31 67
28 34 53
55 83 54
99 70 16
27 62 9
31 75 54
26 76 77
