datasets/2-dimensional/CL_05_25_10.txt
1000 1000 
0 30 56 75 
1 72 49 69 
2 4 67 35 
3 88 28 88 
4 54 97 71 
5 64 92 76 
6 90 79 68 
7 26 74 40 
8 94 46 83 
9 28 59 90 
10 72 56 51 
11 49 79 58 
12 54 44 78 
13 19 42 28 
14 28 41 75 
15 61 33 34 
16 84 33 48 
17 23 84 58 
18 67 26 31 
19 53 28 34 
20 54 55 83 
21 16 99 70 
22 9 27 62 
23 54 31 75 
24 77 26 76 
